# TSP Tour Result
# Total Distance: 3445
# Tour Order:
0 279 1 2 278 277 3 276 275 274 273 272 271 270 15 16 17 18 19 20 127 126 125 124 29 30 31 28 27 26 25 21 24 22 23 13 12 14 11 10 9 7 6 8 5 4 259 260 261 262 263 264 265 266 136 135 134 268 267 269 133 132 131 130 129 128 153 154 152 155 151 150 176 175 180 179 178 177 149 148 138 139 140 141 142 143 144 145 146 147 137 198 197 200 195 196 193 194 201 199 202 203 204 205 207 252 253 256 257 258 255 254 251 208 209 206 211 212 215 216 217 214 213 210 227 228 229 250 249 246 244 239 240 243 242 241 238 237 230 231 236 235 234 233 232 226 225 224 223 222 221 220 219 218 245 248 247 192 191 190 189 188 187 186 185 184 183 182 181 174 159 158 157 156 118 119 120 121 122 123 33 32 35 34 38 39 40 41 42 59 60 117 116 114 113 112 86 83 82 81 80 79 78 75 74 73 72 71 70 69 66 65 64 84 85 115 61 62 63 57 56 55 54 45 44 43 58 67 68 53 46 47 52 51 48 49 50 36 37 76 77 101 169 171 170 102 87 111 108 88 89 90 91 92 93 94 95 96 97 98 99 100 168 167 166 165 164 163 162 161 160 173 172 106 105 104 103 107 109 110 0
